(set-logic QF_S)
(set-option :strings-exp true)
(set-option :produce-models true)
(declare-fun sigmaStar_0 () String)
(declare-fun literal_6 () String)
(assert (= literal_6 "\x3c\x2f\x66\x6f\x72\x6d\x3e\x3c\x74\x72\x3e\x3c\x74\x64\x20\x63\x6f\x6c\x73\x70\x61\x6e\x3d\x22\x33\x22\x20\x61\x6c\x69\x67\x6e\x3d\x22\x63\x65\x6e\x74\x65\x72\x22\x20\x63\x6c\x61\x73\x73\x3d\x22\x67\x65\x6e\x65\x72\x61\x6c\x62\x6f\x78\x63\x6f\x6e\x74\x65\x6e\x74\x22\x3e\x67\x72\x61\x64\x65\x6c\x65\x74\x74\x65\x72\x6e\x6f\x74\x65\x3c\x2f\x74\x61\x62\x6c\x65\x3e"))
(assert (str.in.re literal_6 (re.++ (re.* re.allchar) (re.++ (str.to.re "\x5c\x3c\x53\x43\x52\x49\x50\x54") (re.* re.allchar)))))
(check-sat)
(get-model)
